ioscaa1@Bogdan:~$ minisat 18c0eb461bda29214bd43b84199a3b61-cliquecolouring_n31_k5_c4.sanitized.cnf 18c0.out
WARNING: for repeatability, setting FPU to use double precision
============================[ Problem Statistics ]=============================
|                                                                             |
|  Number of variables:           744                                         |
|  Number of clauses:           14017                                         |
|  Parse time:                   0.00 s                                       |
|  Eliminated clauses:           0.00 Mb                                      |
|  Simplification time:          0.00 s                                       |
|                                                                             |
============================[ Search Statistics ]==============================
| Conflicts |          ORIGINAL         |          LEARNT          | Progress |
|           |    Vars  Clauses Literals |    Limit  Clauses Lit/Cl |          |
===============================================================================
|       100 |     713    13893    40951 |     5094      100     38 |  0.000 % |
|       250 |     713    13893    40951 |     5603      250     21 |  0.000 % |
|       475 |     713    13893    40951 |     6163      475     17 |  0.001 % |
|       812 |     713    13893    40951 |     6780      812     16 |  0.006 % |
|      1318 |     713    13893    40951 |     7458     1318     16 |  0.006 % |
|      2077 |     713    13893    40951 |     8204     2077     15 |  0.001 % |
|      3216 |     713    13893    40951 |     9024     3216     15 |  0.001 % |
|      4924 |     713    13893    40951 |     9926     4924     16 |  0.001 % |
|      7486 |     713    13893    40951 |    10919     7486     15 |  0.001 % |
|     11330 |     713    13893    40951 |    12011     5801     13 |  0.006 % |
|     17096 |     713    13893    40951 |    13212    11567     13 |  0.001 % |
|     25745 |     713    13893    40951 |    14534     6844     12 |  0.006 % |
|     38719 |     713    13893    40951 |    15987    12477     13 |  0.001 % |
|     58180 |     713    13893    40951 |    17586    15799     12 |  0.001 % |
|     87372 |     713    13893    40951 |    19344     9637     15 |  0.006 % |
|    131161 |     713    13893    40951 |    21279    14542     15 |  0.006 % |
|    196845 |     713    13893    40951 |    23407    15996     18 |  0.001 % |
|    295371 |     713    13893    40951 |    25747    18247     13 |  0.001 % |
|    443160 |     713    13893    40951 |    28322    14784     15 |  0.001 % |
|    664843 |     713    13893    40951 |    31155    18827     14 |  0.006 % |
|    997368 |     713    13893    40951 |    34270    16362     22 |  0.006 % |
|   1496156 |     713    13893    40951 |    37697    23743     14 |  0.001 % |
|   2244338 |     713    13893    40951 |    41467    29433     24 |  0.006 % |
|   3366612 |     713    13893    40951 |    45614    36175     14 |  0.006 % |
|   5050023 |     713    13893    40951 |    50175    42159     21 |  0.006 % |
|   7575139 |     713    13893    40951 |    55193    27450     32 |  0.001 % |
|  11362814 |     713    13893    40951 |    60712    38004     27 |  0.006 % |
|  17044326 |     713    13893    40951 |    66783    20138     17 |  0.006 % |
|  25566595 |     713    13893    40951 |    73461    31023     24 |  0.001 % |
|  38349998 |     713    13893    40951 |    80808    73532     30 |  0.000 % |
|  57525103 |     713    13893    40951 |    88889    34203     30 |  0.001 % |
|  86287761 |     713    13893    40951 |    97777    20200     15 |  0.006 % |
| 129431749 |     713    13893    40951 |   107555    71113     18 |  0.006 % |
| 194147731 |     713    13893    40951 |   118311    30913     14 |  0.000 % |
| 291221704 |     713    13893    40951 |   130142    59697     16 |  0.001 % |
| 436832664 |     713    13893    40951 |   143156    38132     14 |  0.006 % |
| 655249104 |     713    13893    40951 |   157472    81656     26 |  0.006 % |
| 982873765 |     713    13893    40951 |   173219    53530     64 |  0.006 % |
  | 1474310757 |     713    13893    40951 |   190541   166465     17 |  0.001 % |

^C===============================================================================
restarts              : 1802235
conflicts             : 1734786499     (50102 /sec)
decisions             : 13850576212    (0.00 % random) (400019 /sec)
propagations          : 56540002749    (1632933 /sec)
conflict literals     : 45558075238    (16.31 % deleted)
Memory used           : 550.00 MB
CPU time              : 34624.8 s

INDETERMINATE
